\ This file has been generated by DOcplex
\ ENCODING=ISO-8859-1
\Problem name: Bakery

Minimize
 obj: 0.600000000000 inmhouse_BlackForestCake_100_0.6_0.8
      + 0.800000000000 inmhouse_RedVelvetCake_200_0.8_0.9
      + 0.300000000000 inmhouse_ButterCookies_300_0.3_0.4
      + 0.800000000000 outsourced_BlackForestCake_100_0.6_0.8
      + 0.900000000000 outsourced_RedVelvetCake_200_0.8_0.9
      + 0.400000000000 outsourced_ButterCookies_300_0.3_0.4
Subject To
 ct_demand_BlackForestCake: inmhouse_BlackForestCake_100_0.6_0.8
                            + outsourced_BlackForestCake_100_0.6_0.8 >= 100
 ct_demand_RedVelvetCake: inmhouse_RedVelvetCake_200_0.8_0.9
                          + outsourced_RedVelvetCake_200_0.8_0.9 >= 200
 ct_demand_ButterCookies: inmhouse_ButterCookies_300_0.3_0.4
                          + outsourced_ButterCookies_300_0.3_0.4 >= 300
 ct_res_flour: 0.500000000000 inmhouse_BlackForestCake_100_0.6_0.8
               + 0.400000000000 inmhouse_RedVelvetCake_200_0.8_0.9
               + 0.300000000000 inmhouse_ButterCookies_300_0.3_0.4 <= 20
 ct_res_eggs: 0.200000000000 inmhouse_BlackForestCake_100_0.6_0.8
              + 0.400000000000 inmhouse_RedVelvetCake_200_0.8_0.9
              + 0.600000000000 inmhouse_ButterCookies_300_0.3_0.4 <= 40

Bounds
End
